This is Ipopt version 3.14.4, running with linear solver MUMPS 5.4.1.

Number of nonzeros in equality constraint Jacobian...:    19061
Number of nonzeros in inequality constraint Jacobian.:     5912
Number of nonzeros in Lagrangian Hessian.............:        0

Total number of variables............................:     6568
                     variables with only lower bounds:     1517
                variables with lower and upper bounds:        0
                     variables with only upper bounds:        0
Total number of equality constraints.................:     5217
Total number of inequality constraints...............:     1796
        inequality constraints with only lower bounds:        0
   inequality constraints with lower and upper bounds:        0
        inequality constraints with only upper bounds:     1796

iter    objective    inf_pr   inf_du lg(mu)  ||d||  lg(rg) alpha_du alpha_pr  ls
   0  4.5910009e+02 6.84e+00 2.95e+00   0.0 0.00e+00    -  0.00e+00 0.00e+00   0
   1  7.9333088e+02 6.05e+00 2.38e+01  -0.6 4.39e+00    -  2.10e-02 1.14e-01f  1
   2  2.2213838e+03 5.54e+00 6.44e+01   0.1 5.08e+00    -  5.38e-01 8.55e-02f  1
   3  4.4153381e+03 3.92e+00 5.16e+01   0.4 3.20e+00    -  2.36e-01 2.92e-01f  1
   4  4.0659217e+03 1.59e+00 3.54e+01   0.0 1.86e+00    -  4.21e-01 5.94e-01f  1
   5  3.0389353e+03 1.15e+00 2.49e+01  -0.4 3.46e+00    -  3.25e-01 2.78e-01f  1
   6  2.8411058e+03 5.08e-01 5.70e+01  -0.2 8.08e-01    -  7.17e-01 5.57e-01f  1
   7  2.2388381e+03 1.76e-01 2.98e+01  -0.5 7.39e-01    -  6.75e-01 6.53e-01f  1
   8  1.9542415e+03 1.23e-01 9.84e+01  -0.8 1.09e+00    -  4.19e-01 2.99e-01f  1
   9  2.8819130e+03 1.32e-02 2.47e+01  -0.2 4.99e-01    -  9.88e-01 9.90e-01f  1
iter    objective    inf_pr   inf_du lg(mu)  ||d||  lg(rg) alpha_du alpha_pr  ls
  10  1.8651504e+03 3.86e-03 1.02e+04  -0.5 3.40e-01    -  9.95e-01 9.34e-01f  1
  11  1.7471371e+03 3.91e-03 8.03e+05  -0.6 3.69e-01    -  1.00e+00 6.31e-01f  1
  12  1.4870292e+03 2.39e-03 1.38e+06  -0.7 2.24e-01    -  1.00e+00 6.25e-01f  1
  13  1.9486962e+03 4.03e-04 2.30e+01  -0.5 4.21e-01    -  1.00e+00 1.00e+00H  1
  14  1.3073109e+03 8.52e-03 7.49e+04  -0.7 3.71e-01    -  9.91e-01 9.52e-01f  1
  15  1.2980025e+03 4.29e-03 8.31e+04  -0.7 4.48e-01    -  6.98e-01 8.16e-01h  1
  16  1.6928737e+03 3.37e-03 4.34e+06  -0.5 2.61e-01    -  7.13e-01 1.00e+00f  1
  17  1.4017180e+03 1.85e-03 1.25e+01  -0.6 1.61e-01    -  1.00e+00 1.00e+00f  1
  18  1.1087105e+03 2.46e-03 4.55e+06  -0.9 2.61e-01    -  9.93e-01 6.06e-01f  1
  19  1.7583566e+03 2.04e-03 4.82e+01  -0.6 5.94e-01    -  1.00e+00 1.00e+00H  1
iter    objective    inf_pr   inf_du lg(mu)  ||d||  lg(rg) alpha_du alpha_pr  ls
  20  1.2765412e+03 9.59e-03 5.19e+06  -0.8 4.93e-01    -  1.00e+00 5.46e-01f  1
  21  1.0082649e+03 4.71e-03 2.63e+06  -0.9 2.96e-01    -  8.95e-01 6.62e-01f  1
  22  1.2970176e+03 3.84e-03 1.33e+06  -0.6 9.48e-02    -  8.92e-01 1.00e+00f  1
  23  1.1191181e+03 1.57e-03 9.38e+00  -0.7 9.63e-02    -  1.00e+00 1.00e+00f  1
  24  8.5545854e+02 4.77e-03 1.70e+06  -0.9 2.99e-01    -  9.97e-01 7.93e-01f  1
  25  8.4502208e+02 3.52e-03 3.57e+04  -0.9 1.70e-01    -  9.46e-01 1.00e+00h  1
  26  7.9423220e+02 1.65e-03 5.20e+00  -0.9 1.44e-01    -  1.00e+00 1.00e+00f  1
  27  6.6045380e+02 9.84e-04 2.84e+06  -1.3 1.92e-01    -  1.00e+00 5.63e-01f  1
  28  6.7769971e+02 1.18e-03 2.72e+06  -0.9 3.50e-01    -  9.66e-01 1.58e-01f  3
  29  6.4853602e+02 7.84e-04 2.77e+00  -1.1 1.27e-01    -  1.00e+00 1.00e+00f  1
iter    objective    inf_pr   inf_du lg(mu)  ||d||  lg(rg) alpha_du alpha_pr  ls
  30  6.1325096e+02 1.10e-03 2.07e+06  -1.2 5.64e-01    -  9.88e-01 2.25e-01f  3
  31  4.8405699e+02 2.57e-03 1.42e+06  -1.5 4.74e-01    -  1.00e+00 6.99e-01f  1
  32  5.7374392e+02 3.81e-03 4.01e+05  -1.1 3.22e-01    -  9.03e-01 1.00e+00f  1
  33  4.9854643e+02 1.70e-03 1.27e+06  -1.4 1.99e-01    -  1.00e+00 6.08e-01f  1
  34  4.3125342e+02 6.11e-04 4.69e+04  -1.4 9.28e-02    -  8.63e-01 1.00e+00f  1
  35  4.0114898e+02 6.91e-04 8.08e+05  -1.6 2.41e-01    -  1.00e+00 4.91e-01f  1
  36  3.7878390e+02 3.37e-04 1.16e+06  -1.8 5.35e-01    -  1.00e+00 2.88e-01f  1
  37  3.6178418e+02 2.45e-03 4.12e+05  -1.8 3.73e-01    -  1.00e+00 6.35e-01f  1
  38  3.9574952e+02 1.90e-03 2.99e+04  -1.5 1.48e-01    -  9.11e-01 8.51e-01f  1
  39  3.7928504e+02 2.34e-03 1.10e+05  -1.6 1.79e-01    -  7.44e-01 9.27e-01f  1
iter    objective    inf_pr   inf_du lg(mu)  ||d||  lg(rg) alpha_du alpha_pr  ls
  40  3.5630668e+02 8.81e-04 5.94e+03  -1.6 7.41e-02    -  1.00e+00 8.55e-01f  1
  41  3.3437679e+02 4.65e-04 3.01e+05  -1.8 1.80e-01    -  1.00e+00 6.75e-01f  1
  42  3.1634059e+02 5.94e-04 6.82e+05  -2.1 4.87e-01    -  1.00e+00 3.30e-01f  1
  43  3.3293539e+02 1.76e-03 1.02e+05  -1.7 2.37e-01    -  8.30e-01 8.05e-01f  1
  44  3.2473935e+02 1.21e-03 2.38e+05  -1.8 2.40e-01    -  9.71e-01 4.23e-01f  1
  45  3.1874980e+02 4.90e-04 4.58e+04  -1.9 1.64e-01    -  5.98e-01 7.31e-01H  1
  46  2.9465583e+02 4.60e-04 1.62e+05  -2.0 1.22e-01    -  1.00e+00 7.05e-01f  1
  47  2.9104850e+02 2.58e-04 7.45e+04  -2.0 1.16e-01    -  7.71e-01 4.31e-01f  1
  48  2.8255549e+02 2.27e-04 5.29e+05  -2.5 1.82e-01    -  1.00e+00 2.87e-01f  1
  49  2.8603361e+02 7.45e-04 1.09e+05  -1.9 3.26e-01    -  8.40e-01 2.87e-01f  2
iter    objective    inf_pr   inf_du lg(mu)  ||d||  lg(rg) alpha_du alpha_pr  ls
  50  2.8092922e+02 8.82e-04 1.23e+03  -2.1 5.00e-01    -  6.30e-01 2.90e-01f  1
  51  2.8029971e+02 5.67e-04 1.49e+05  -1.8 2.65e+00    -  2.87e-01 7.79e-02f  2
  52  2.7469521e+02 9.83e-04 8.33e+04  -2.1 1.49e+00    -  3.41e-01 1.54e-01f  2
  53  2.7039083e+02 6.63e-03 1.31e+04  -2.5 1.80e+00    -  3.45e-01 2.78e-01f  1
  54  2.9532246e+02 7.35e-03 1.26e+05  -1.8 7.18e-01    -  5.77e-01 4.59e-01f  1
  55  2.8585135e+02 6.32e-03 3.75e+04  -2.0 2.69e-01    -  3.63e-01 1.32e-01f  1
  56  2.7159118e+02 4.45e-03 1.28e+04  -2.0 2.03e-01    -  4.25e-01 3.71e-01f  1
  57  2.6647383e+02 3.71e-03 3.18e+04  -2.0 2.60e-01    -  4.54e-01 1.81e-01f  1
  58  2.4689001e+02 1.59e-03 1.15e+05  -2.3 1.40e-01    -  1.00e+00 8.05e-01f  1
  59  2.5181459e+02 8.18e-04 1.13e+05  -2.0 1.68e-01    -  7.88e-01 4.64e-01f  1
iter    objective    inf_pr   inf_du lg(mu)  ||d||  lg(rg) alpha_du alpha_pr  ls
  60  2.4628652e+02 1.47e-04 4.06e+00  -2.2 8.57e-02    -  1.00e+00 1.00e+00f  1
  61  2.3823819e+02 9.53e-05 2.47e+04  -2.3 4.01e-02    -  9.99e-01 8.91e-01f  1
  62  2.4894051e+02 4.26e-04 7.74e+00  -2.1 1.03e-01    -  1.00e+00 1.00e+00f  1
  63  2.3968740e+02 2.49e-04 4.08e+04  -2.2 9.27e-02    -  1.00e+00 7.50e-01f  1
  64  2.3739642e+02 1.96e-04 3.11e+04  -2.2 1.47e-01    -  7.80e-01 2.39e-01f  1
  65  2.2685906e+02 1.83e-04 9.94e+04  -2.7 2.08e-01    -  6.21e-01 4.62e-01f  1
  66  2.1762822e+02 5.77e-04 1.18e+05  -2.7 7.19e-01    -  6.68e-01 3.79e-01f  1
  67  2.3106767e+02 1.00e-03 1.40e+05  -2.0 1.32e+00    -  1.95e-01 2.55e-01f  1
  68  2.2714086e+02 8.22e-04 1.30e+05  -2.4 3.55e-01    -  6.72e-01 1.52e-01f  1
  69  2.1534507e+02 4.47e-04 6.03e+04  -2.4 1.50e-01    -  3.50e-01 5.27e-01f  1
iter    objective    inf_pr   inf_du lg(mu)  ||d||  lg(rg) alpha_du alpha_pr  ls
  70  2.1091659e+02 3.73e-04 9.52e+04  -4.0 3.41e-01    -  2.75e-01 1.60e-01f  1
  71  2.0959619e+02 7.62e-04 1.79e+04  -2.5 1.17e-01    -  8.21e-01 8.04e-01h  1
  72  2.1626421e+02 6.11e-04 6.49e+04  -2.2 1.62e-01    -  7.55e-01 1.00e+00f  1
  73  2.1288618e+02 2.61e-04 2.99e+04  -2.3 8.55e-02    -  6.59e-01 6.04e-01h  1
  74  2.0827251e+02 1.10e-04 1.60e+04  -2.4 5.25e-02    -  1.00e+00 7.78e-01f  1
  75  2.0213491e+02 5.52e-05 1.81e+05  -2.9 1.69e-01    -  1.00e+00 4.47e-01f  1
  76  2.0138595e+02 1.25e-04 2.88e+04  -2.4 4.30e-01    -  8.79e-01 1.32e-01f  2
  77  1.9899658e+02 3.21e-04 3.50e+04  -2.7 4.54e-01    -  6.30e-01 2.47e-01f  1
  78  1.9634391e+02 2.59e-04 4.93e+04  -2.7 3.86e-01    -  8.66e-01 2.99e-01f  1
  79  1.9496960e+02 2.51e-04 7.42e+04  -2.8 1.01e+00    -  6.99e-01 1.35e-01f  2
iter    objective    inf_pr   inf_du lg(mu)  ||d||  lg(rg) alpha_du alpha_pr  ls
  80  1.9018320e+02 5.96e-04 6.46e+04  -3.1 6.82e-01    -  4.44e-01 2.98e-01f  1
  81  1.8924901e+02 6.40e-04 3.82e+03  -2.4 2.28e+00    -  2.89e-01 7.13e-02f  2
  82  1.8778468e+02 5.86e-04 6.32e+04  -3.9 4.23e-01    -  3.91e-01 8.50e-02f  1
  83  1.8725836e+02 5.55e-04 1.30e+05  -3.4 1.28e-01    -  8.52e-01 5.21e-02f  1
  84  1.8448777e+02 5.49e-04 1.16e+05  -3.4 8.49e-01    -  5.19e-01 1.49e-01f  1
  85  1.8412321e+02 4.21e-04 5.11e+04  -2.7 1.10e+00    -  4.76e-01 2.13e-01f  2
  86  1.8129896e+02 3.67e-04 6.40e+04  -3.8 7.89e-01    -  3.84e-01 1.77e-01f  1
  87  1.9078854e+02 1.43e-03 1.65e+04  -2.3 1.29e+00    -  3.13e-01 2.39e-01f  1
  88  1.8497134e+02 4.96e-04 7.96e+03  -2.7 1.46e-01    -  4.69e-01 4.85e-01f  1
  89  1.8240574e+02 4.14e-04 6.29e+03  -2.7 3.53e-01    -  2.11e-01 2.11e-01f  1
iter    objective    inf_pr   inf_du lg(mu)  ||d||  lg(rg) alpha_du alpha_pr  ls
  90  1.8091274e+02 6.34e-04 2.20e+03  -2.7 1.45e-01    -  7.66e-01 9.47e-01f  1
  91  1.7945816e+02 3.42e-04 1.11e+04  -2.8 7.04e-02    -  9.98e-01 4.37e-01f  1
  92  1.7844366e+02 2.31e-04 1.12e+04  -2.8 7.03e-02    -  1.00e+00 4.80e-01f  1
  93  1.7554808e+02 2.09e-04 2.08e+04  -3.2 1.24e-01    -  1.00e+00 7.81e-01f  1
  94  1.7362603e+02 2.26e-04 3.24e+04  -3.4 3.40e-01    -  9.97e-01 3.24e-01f  1
  95  1.7314685e+02 2.13e-04 2.80e+04  -3.3 5.21e-01    -  3.00e-01 4.72e-02f  1
  96  1.7153279e+02 3.63e-04 2.06e+04  -3.6 3.72e-01    -  5.13e-01 3.67e-01f  1
  97  1.7262874e+02 2.88e-04 1.93e+04  -2.8 4.74e-01    -  3.06e-01 3.58e-01f  1
  98  1.7113219e+02 1.94e-04 1.21e+04  -3.2 1.63e-01    -  5.94e-01 4.23e-01f  1
  99  1.6992313e+02 1.56e-04 1.17e+04  -4.0 2.33e-01    -  1.80e-01 1.55e-01f  1
iter    objective    inf_pr   inf_du lg(mu)  ||d||  lg(rg) alpha_du alpha_pr  ls
 100  1.6893835e+02 1.23e-04 1.40e+04  -4.0 2.89e-01    -  2.28e-01 1.44e-01f  1
 101  1.6738472e+02 1.66e-04 8.84e+03  -4.0 3.77e-01    -  2.90e-01 3.11e-01f  1
 102  1.6707597e+02 2.01e-04 1.20e+04  -3.9 6.32e-01    -  2.88e-01 1.17e-01f  1
 103  1.6636488e+02 1.63e-04 1.61e+04  -3.9 1.62e-01    -  5.77e-01 1.85e-01f  1
 104  1.6859230e+02 4.88e-04 1.52e+04  -2.7 5.56e-01    -  2.39e-01 2.59e-01f  1
 105  1.6695556e+02 2.17e-04 8.02e+03  -3.3 1.66e-01    -  5.37e-01 4.87e-01f  1
 106  1.6600833e+02 1.66e-04 7.15e+03  -3.3 1.73e-01    -  3.33e-01 1.56e-01f  1
 107  1.6489859e+02 1.13e-04 3.21e+03  -3.2 1.91e-01    -  9.74e-01 4.82e-01f  1
 108  1.6425048e+02 1.06e-04 2.96e+04  -4.0 2.63e-01    -  6.98e-01 1.12e-01f  1
 109  1.6381817e+02 1.96e-04 9.67e+03  -3.1 6.78e-01    -  4.88e-01 2.05e-01f  1
iter    objective    inf_pr   inf_du lg(mu)  ||d||  lg(rg) alpha_du alpha_pr  ls
 110  1.6389296e+02 2.55e-04 1.79e+04  -2.9 1.43e+00    -  4.47e-01 9.13e-02f  1
 111  1.6314173e+02 3.21e-04 4.58e+03  -3.2 4.96e-01    -  6.66e-01 4.40e-01f  1
 112  1.6212892e+02 2.17e-04 5.98e+03  -3.7 1.26e+00    -  3.24e-01 1.10e-01f  1
 113  1.6262214e+02 2.32e-04 1.19e+04  -3.0 5.50e-01    -  5.32e-01 1.72e-01f  2
 114  1.6133246e+02 1.05e-04 3.68e+03  -3.3 5.00e-02    -  6.38e-01 5.65e-01f  1
 115  1.6499563e+02 3.88e-05 6.44e+04  -2.7 1.03e-01    -  2.50e-01 6.69e-01f  1
 116  1.6447963e+02 6.70e-05 1.92e+04  -2.9 1.45e-01    -  1.00e+00 4.08e-01f  2
 117  1.6283201e+02 1.02e-04 3.25e+04  -3.1 1.99e-01    -  1.00e+00 5.71e-01f  1
 118  1.6204331e+02 1.81e-04 2.85e+04  -3.2 3.75e-01    -  9.58e-01 4.05e-01f  1
 119  1.6103825e+02 8.74e-05 1.63e+04  -3.2 1.34e-01    -  9.42e-01 4.72e-01f  1
iter    objective    inf_pr   inf_du lg(mu)  ||d||  lg(rg) alpha_du alpha_pr  ls
 120  1.6023636e+02 7.67e-05 9.91e+03  -3.2 1.11e-01    -  6.75e-01 4.21e-01f  1
 121  1.6098466e+02 7.52e-05 3.52e+03  -3.0 9.96e-02    -  6.60e-01 5.00e-01f  2
 122  1.5947789e+02 3.38e-05 1.95e+04  -3.4 3.53e-02    -  1.00e+00 6.29e-01f  1
 123  1.5843462e+02 2.59e-05 2.39e+04  -3.8 9.57e-02    -  9.86e-01 3.89e-01f  1
 124  1.5796121e+02 2.05e-05 2.44e+04  -3.9 2.35e-01    -  1.00e+00 1.81e-01f  1
 125  1.5726133e+02 2.93e-04 2.00e+04  -3.7 1.59e+00    -  1.85e-01 1.74e-01f  1
 126  1.5828207e+02 4.49e-04 4.41e+04  -2.2 1.02e+01    -  1.53e-01 3.85e-02f  1
 127  1.5805247e+02 4.38e-04 3.52e+04  -3.2 2.61e+00    -  2.27e-01 1.92e-02f  1
 128  1.5759538e+02 4.48e-04 1.36e+04  -3.2 1.00e+00    -  6.93e-01 1.45e-01f  1
 129  1.5736134e+02 3.72e-04 9.76e+03  -3.2 6.76e-01    -  3.74e-01 8.66e-02f  3
iter    objective    inf_pr   inf_du lg(mu)  ||d||  lg(rg) alpha_du alpha_pr  ls
 130  1.5665915e+02 2.25e-04 5.63e+03  -3.2 8.13e-02    -  4.25e-01 4.21e-01f  1
 131  1.5792741e+02 1.04e-04 2.28e+04  -3.0 6.02e-02    -  5.08e-01 1.00e+00f  1
 132  1.5673397e+02 5.29e-05 3.09e+04  -3.3 1.08e-01    -  1.00e+00 4.91e-01f  1
 133  1.5563095e+02 2.16e-05 1.55e+04  -3.4 4.98e-02    -  1.00e+00 5.49e-01f  1
 134  1.5469195e+02 3.29e-05 1.48e+04  -3.5 8.38e-02    -  9.61e-01 4.89e-01f  1
 135  1.5350931e+02 5.27e-05 8.76e+03  -3.8 7.06e-02    -  1.00e+00 6.98e-01f  1
 136  1.5319827e+02 4.92e-05 1.00e+04  -4.0 3.20e-01    -  5.33e-01 1.31e-01f  1
 137  1.5296124e+02 7.39e-05 7.89e+03  -4.0 2.84e-01    -  7.01e-01 3.20e-01f  1
 138  1.5296524e+02 9.32e-05 3.96e+03  -3.6 1.53e-01    -  5.93e-01 6.78e-01f  1
 139  1.5283581e+02 8.72e-05 4.64e+03  -3.7 2.07e-01    -  4.17e-01 5.66e-02f  1
iter    objective    inf_pr   inf_du lg(mu)  ||d||  lg(rg) alpha_du alpha_pr  ls
 140  1.5225287e+02 4.27e-05 2.63e+03  -4.0 1.66e-01    -  4.05e-01 4.14e-01f  1
 141  1.5204165e+02 1.29e-04 1.27e+03  -3.8 2.92e-01    -  6.11e-01 4.28e-01f  1
 142  1.5172945e+02 1.64e-04 5.48e+02  -3.8 2.76e-01    -  8.55e-01 3.57e-01f  1
 143  1.5146243e+02 1.81e-04 3.61e+03  -3.9 4.66e-01    -  1.00e+00 1.94e-01f  2
 144  1.5101752e+02 7.24e-05 1.81e+03  -3.8 5.28e-01    -  6.38e-01 3.34e-01f  1
 145  1.5069083e+02 1.18e-04 1.43e+04  -3.3 1.82e+00    -  5.56e-01 7.32e-02f  1
 146  1.5141128e+02 1.82e-04 1.30e+04  -2.6 2.02e+00    -  7.59e-02 7.67e-02f  1
 147  1.5119464e+02 1.68e-04 3.56e+03  -3.5 3.14e-01    -  6.21e-01 7.53e-02f  1
 148  1.5062317e+02 9.28e-05 2.42e+03  -3.5 4.42e-02    -  3.83e-01 4.76e-01f  1
 149  1.4993156e+02 3.24e-05 2.19e+02  -3.6 2.88e-02    -  8.91e-01 8.48e-01f  1
iter    objective    inf_pr   inf_du lg(mu)  ||d||  lg(rg) alpha_du alpha_pr  ls
 150  1.4934320e+02 1.54e-05 4.40e+03  -4.0 1.49e-02    -  1.00e+00 7.08e-01f  1
 151  1.4903340e+02 7.07e-06 1.70e+02  -4.0 1.01e-02    -  1.00e+00 9.61e-01f  1
 152  1.4897292e+02 1.18e-05 1.29e+00  -4.0 1.76e-02    -  1.00e+00 1.00e+00f  1
 153  1.4888752e+02 1.18e-05 2.37e+00  -4.0 3.29e-02    -  1.00e+00 1.00e+00f  1
 154  1.5010331e+02 2.93e-05 2.87e+03  -3.2 9.88e-02    -  4.46e-01 5.08e-01f  1
 155  1.4979484e+02 1.38e-05 2.30e+03  -3.6 4.74e-02    -  1.00e+00 6.78e-01f  1
 156  1.4960851e+02 7.98e-06 1.09e+03  -3.6 1.82e-02    -  8.69e-01 5.25e-01f  1
 157  1.4952115e+02 4.16e-06 5.99e-01  -3.6 2.32e-02    -  1.00e+00 1.00e+00f  1
 158  1.4913503e+02 8.88e-06 7.50e+03  -3.9 1.02e-01    -  1.00e+00 5.11e-01f  1
 159  1.4902021e+02 4.71e-05 4.48e+03  -3.9 3.28e-01    -  9.79e-01 3.15e-01f  2
iter    objective    inf_pr   inf_du lg(mu)  ||d||  lg(rg) alpha_du alpha_pr  ls
 160  1.4891215e+02 1.32e-04 3.56e+03  -3.9 8.06e-01    -  3.44e-01 2.03e-01f  2
 161  1.4876573e+02 2.62e-04 3.31e+03  -3.9 2.78e+00    -  9.46e-02 7.07e-02f  1
 162  1.4956492e+02 2.64e-04 1.67e+04  -2.2 5.06e+00    -  6.86e-02 3.25e-02f  1
 163  1.4930485e+02 3.18e-04 1.52e+04  -3.5 4.11e+00    -  8.92e-02 3.07e-02f  1
 164  1.4929085e+02 4.88e-04 1.42e+04  -3.5 7.43e+00    -  6.13e-02 2.80e-02f  1
 165  1.4901629e+02 4.59e-04 9.40e+03  -3.5 8.14e-01    -  3.26e-01 6.53e-02f  1
 166  1.4883892e+02 3.83e-04 6.92e+03  -3.5 3.78e-01    -  2.56e-01 1.47e-01f  2
 167  1.4810953e+02 1.99e-04 3.59e+03  -3.5 4.01e-02    -  4.84e-01 5.16e-01f  1
 168  1.4853086e+02 8.27e-05 9.90e+03  -3.2 3.26e-02    -  9.87e-01 6.48e-01f  1
 169  1.4812212e+02 5.99e-05 2.40e+04  -3.7 3.25e-02    -  1.00e+00 2.82e-01f  1
iter    objective    inf_pr   inf_du lg(mu)  ||d||  lg(rg) alpha_du alpha_pr  ls
 170  1.4698229e+02 2.25e-05 1.08e+04  -4.0 2.54e-02    -  1.00e+00 6.64e-01f  1
 171  1.4649825e+02 3.12e-05 1.99e+03  -4.0 4.96e-02    -  1.00e+00 8.17e-01f  1
 172  1.4642645e+02 1.41e-05 6.81e+02  -4.0 2.27e-02    -  1.00e+00 6.57e-01f  1
 173  1.4672188e+02 7.97e-06 8.50e-01  -3.7 3.07e-02    -  1.00e+00 1.00e+00f  1
 174  1.4629336e+02 4.70e-06 7.81e+02  -4.0 8.73e-03    -  1.00e+00 9.05e-01f  1
 175  1.4623984e+02 2.68e-06 4.69e-01  -4.0 7.60e-03    -  1.00e+00 1.00e+00f  1
 176  1.4621805e+02 1.15e-05 1.01e+00  -4.0 1.48e-02    -  1.00e+00 1.00e+00f  1
 177  1.4618768e+02 2.71e-06 2.96e+00  -4.0 3.66e-02    -  1.00e+00 5.00e-01f  2
 178  1.4617128e+02 1.09e-05 2.88e+00  -4.0 6.98e-02    -  7.44e-01 3.59e-01f  2
 179  1.4626185e+02 4.82e-06 5.92e+03  -3.7 5.99e-02    -  1.00e+00 2.50e-01f  3
iter    objective    inf_pr   inf_du lg(mu)  ||d||  lg(rg) alpha_du alpha_pr  ls
 180  1.4619889e+02 3.20e-06 1.40e+03  -3.9 1.36e-02    -  7.73e-01 1.00e+00f  1
 181  1.4617129e+02 2.39e-06 5.36e-01  -3.9 1.27e-02    -  1.00e+00 1.00e+00f  1
 182  1.4613185e+02 2.13e-06 1.04e+03  -4.0 2.91e-02    -  1.00e+00 3.93e-01f  2
 183  1.4606506e+02 1.02e-05 1.70e+00  -4.0 3.79e-02    -  1.00e+00 1.00e+00f  1
 184  1.4704730e+02 8.66e-05 3.68e+04  -3.2 3.08e-01    -  1.00e+00 3.29e-01f  1
 185  1.4718928e+02 2.87e-05 1.89e+04  -3.4 4.10e-01    -  5.42e-01 2.77e-01f  1
 186  1.4726924e+02 8.32e-05 9.34e+03  -3.4 1.89e-01    -  5.37e-01 4.30e-01f  2
 187  1.4726716e+02 1.72e-04 1.55e+03  -3.4 1.67e-01    -  1.00e+00 5.08e-01f  1
 188  1.4708796e+02 6.97e-05 7.76e+02  -3.4 4.46e-02    -  4.60e-01 5.00e-01f  2
 189  1.4691602e+02 3.95e-05 4.14e+02  -3.4 2.47e-02    -  9.37e-01 4.67e-01f  1
iter    objective    inf_pr   inf_du lg(mu)  ||d||  lg(rg) alpha_du alpha_pr  ls
 190  1.4686336e+02 6.45e-06 5.52e+01  -3.4 1.60e-02    -  1.00e+00 8.67e-01f  1
 191  1.4683929e+02 1.75e-06 6.58e-01  -3.4 9.63e-03    -  1.00e+00 1.00e+00f  1
 192  1.4680326e+02 8.45e-07 2.20e-01  -3.4 3.56e-03    -  1.00e+00 1.00e+00f  1
 193  1.4620540e+02 4.97e-07 8.36e+03  -3.9 7.71e-03    -  1.00e+00 6.53e-01f  1
 194  1.4564077e+02 1.58e-05 3.10e+03  -4.0 3.60e-02    -  1.00e+00 6.89e-01f  1
 195  1.4550093e+02 6.68e-06 1.29e+03  -4.0 3.03e-02    -  1.00e+00 5.82e-01f  1
 196  1.4544734e+02 3.51e-06 6.47e+02  -4.0 2.79e-02    -  1.00e+00 5.00e-01f  2
 197  1.4541937e+02 2.33e-06 7.95e-01  -4.0 2.21e-02    -  1.00e+00 1.00e+00f  1
 198  1.4539523e+02 3.13e-06 6.41e-01  -4.0 1.58e-02    -  1.00e+00 1.00e+00f  1
 199  1.4537295e+02 2.33e-06 9.81e-01  -4.0 1.86e-02    -  1.00e+00 1.00e+00f  1
iter    objective    inf_pr   inf_du lg(mu)  ||d||  lg(rg) alpha_du alpha_pr  ls
 200  1.4536100e+02 2.94e-06 1.74e+00  -4.0 2.84e-02    -  1.00e+00 1.00e+00f  1
 201  1.4535359e+02 6.76e-06 5.23e+00  -4.0 7.58e-02    -  1.00e+00 5.00e-01f  2
 202  1.4530678e+02 1.37e-05 3.28e+00  -4.0 1.23e-01    -  1.00e+00 5.00e-01f  2
 203  1.4556969e+02 3.94e-05 9.24e+03  -3.6 2.39e-01    -  1.00e+00 2.81e-01f  2
 204  1.4543215e+02 1.26e-05 3.37e+00  -3.9 7.74e-02    -  1.00e+00 1.00e+00f  1
 205  1.4535891e+02 1.40e-05 8.30e+00  -3.9 1.86e-01    -  1.00e+00 2.02e-01f  2
 206  1.4529340e+02 1.35e-05 5.54e+00  -3.9 1.68e-01    -  1.00e+00 3.08e-01f  2
 207  1.4524103e+02 4.63e-05 2.44e+03  -4.0 6.02e-01    -  9.04e-01 2.13e-01f  2
 208  1.4533869e+02 9.63e-05 1.50e+04  -3.4 2.24e+00    -  7.24e-01 8.07e-02f  1
 209  1.4530071e+02 6.16e-05 8.03e+03  -3.8 4.04e-01    -  5.03e-01 2.56e-01f  1
iter    objective    inf_pr   inf_du lg(mu)  ||d||  lg(rg) alpha_du alpha_pr  ls
 210  1.4523812e+02 6.30e-05 6.32e+03  -3.8 1.45e-01    -  1.91e-01 2.90e-01f  2
 211  1.4496413e+02 1.82e-05 2.29e+02  -3.9 3.43e-02    -  1.00e+00 9.21e-01f  1
 212  1.4462590e+02 7.53e-06 4.25e+01  -4.0 6.88e-02    -  7.19e-01 7.48e-01f  1
 213  1.4458834e+02 5.92e-06 4.88e+02  -4.0 1.87e-02    -  1.00e+00 4.65e-01f  2
 214  1.4453856e+02 1.30e-06 2.18e-01  -4.0 7.10e-03    -  1.00e+00 1.00e+00h  1
 215  1.4451625e+02 1.50e-06 3.44e-01  -4.0 6.46e-03    -  1.00e+00 1.00e+00f  1
 216  1.4449864e+02 8.40e-06 3.40e+00  -4.0 3.01e-02    -  1.00e+00 5.00e-01f  2
 217  1.4447995e+02 5.83e-06 4.96e+00  -4.0 8.73e-02    -  1.00e+00 1.90e-01f  3
 218  1.4447159e+02 7.46e-06 4.75e+00  -4.0 7.63e-02    -  1.00e+00 2.50e-01f  3
 219  1.4445632e+02 4.90e-06 2.39e+00  -4.0 2.33e-02    -  1.00e+00 2.50e-01f  3
iter    objective    inf_pr   inf_du lg(mu)  ||d||  lg(rg) alpha_du alpha_pr  ls
 220  1.4445331e+02 3.75e-06 5.50e-01  -4.0 8.17e-03    -  1.00e+00 1.00e+00f  1
 221  1.4444248e+02 1.35e-06 5.14e-01  -4.0 4.47e-03    -  1.00e+00 1.00e+00f  1
 222  1.4442711e+02 1.67e-07 1.59e-01  -4.0 2.18e-03    -  1.00e+00 1.00e+00h  1
 223  1.4442825e+02 6.73e-08 6.61e-02  -4.0 3.05e-03    -  1.00e+00 1.00e+00h  1
 224  1.4442347e+02 1.23e-06 2.17e+00  -4.0 1.65e-01    -  1.00e+00 6.33e-02f  4
 225  1.4441813e+02 7.88e-07 2.31e+00  -4.0 7.48e-02    -  1.00e+00 1.25e-01f  4
 226  1.4441161e+02 1.28e-06 2.02e+00  -4.0 4.38e-02    -  1.00e+00 2.50e-01f  3
 227  1.4441000e+02 9.19e-07 2.98e+00  -4.0 4.06e-02    -  1.00e+00 1.25e-01f  4
 228  1.4440774e+02 1.44e-09 8.15e-02  -4.0 7.66e-03    -  1.00e+00 1.00e+00H  1
 229  1.4440638e+02 5.97e-07 3.39e-01  -4.0 4.98e-03    -  1.00e+00 1.00e+00f  1
iter    objective    inf_pr   inf_du lg(mu)  ||d||  lg(rg) alpha_du alpha_pr  ls
 230  1.4439648e+02 3.85e-07 1.82e-01  -4.0 3.96e-03    -  1.00e+00 1.00e+00h  1
 231  1.4439541e+02 1.85e-07 5.82e-02  -4.0 3.03e-03    -  1.00e+00 1.00e+00h  1
 232  1.4440179e+02 1.12e-10 8.42e-02  -4.0 3.93e-03    -  1.00e+00 1.00e+00H  1
 233  1.4439294e+02 2.43e-07 1.62e-01  -4.0 2.01e-03    -  1.00e+00 1.00e+00f  1
 234  1.4439276e+02 3.81e-08 5.06e-02  -4.0 1.58e-03    -  1.00e+00 1.00e+00h  1
 235  1.4439145e+02 3.08e-07 5.69e-01  -4.0 1.22e-02    -  1.00e+00 5.00e-01f  2
 236  1.4439010e+02 4.69e-07 5.57e-01  -4.0 5.29e-02    -  1.00e+00 1.25e-01h  4
 237  1.4439013e+02 8.39e-07 5.96e-01  -4.0 2.50e-02    -  1.00e+00 2.50e-01h  3
 238  1.4434266e+02 2.55e-06 1.00e+03  -4.1 2.65e-02    -  1.00e+00 5.00e-01f  2
 239  1.4434720e+02 2.21e-06 8.77e+02  -4.0 2.42e-02    -  1.00e+00 1.25e-01h  4
iter    objective    inf_pr   inf_du lg(mu)  ||d||  lg(rg) alpha_du alpha_pr  ls
 240  1.4427774e+02 2.33e-06 4.08e-01  -4.1 6.04e-03    -  1.00e+00 1.00e+00f  1
 241  1.4439359e+02 1.84e-06 3.45e-01  -4.0 6.72e-03    -  1.00e+00 1.00e+00f  1
 242  1.4429554e+02 1.73e-06 3.93e-01  -4.1 8.51e-03    -  1.00e+00 1.00e+00f  1
 243  1.4429748e+02 9.35e-07 3.44e-01  -4.1 3.66e-03    -  1.00e+00 1.00e+00h  1
 244  1.4437846e+02 4.40e-07 1.13e-01  -4.0 2.80e-03    -  1.00e+00 1.00e+00f  1
 245  1.4438180e+02 2.71e-08 5.53e-02  -4.0 6.60e-04    -  1.00e+00 1.00e+00h  1
 246  1.4438322e+02 8.00e-09 1.34e-02  -4.0 4.89e-04    -  1.00e+00 1.00e+00h  1
 247  1.4438399e+02 5.11e-09 5.01e-03  -4.0 3.40e-04    -  1.00e+00 1.00e+00h  1
 248  1.4438538e+02 9.26e-09 8.42e-03  -4.0 7.52e-04    -  1.00e+00 1.00e+00h  1
 249  1.4428563e+02 3.57e-07 1.43e-01  -4.1 3.92e-03    -  1.00e+00 1.00e+00f  1
iter    objective    inf_pr   inf_du lg(mu)  ||d||  lg(rg) alpha_du alpha_pr  ls
 250  1.4439380e+02 1.76e-06 3.63e-01  -4.0 8.08e-03    -  1.00e+00 1.00e+00f  1
 251  1.4429324e+02 1.02e-06 4.09e-01  -4.1 3.91e-03    -  1.00e+00 1.00e+00f  1
 252  1.4428087e+02 2.55e-07 1.66e-01  -4.1 3.30e-03    -  1.00e+00 1.00e+00h  1
 253  1.4438360e+02 1.69e-07 1.63e-01  -4.0 1.32e-03    -  1.00e+00 1.00e+00f  1
 254  1.4428196e+02 7.40e-08 4.91e-02  -4.1 1.08e-03    -  1.00e+00 1.00e+00f  1
 255  1.4438115e+02 4.12e-08 5.52e-02  -4.0 8.39e-04    -  1.00e+00 1.00e+00f  1
 256  1.4438328e+02 8.39e-08 4.45e-02  -4.0 1.37e-03    -  1.00e+00 1.00e+00h  1
 257  1.4428127e+02 2.91e-07 1.42e-01  -4.1 3.32e-03    -  1.00e+00 1.00e+00f  1
 258  1.4428765e+02 2.92e-10 6.56e-02  -4.1 3.59e-03    -  1.00e+00 1.00e+00H  1
 259  1.4438261e+02 6.92e-07 6.22e-02  -4.0 4.51e-03    -  1.00e+00 1.00e+00f  1
iter    objective    inf_pr   inf_du lg(mu)  ||d||  lg(rg) alpha_du alpha_pr  ls
 260  1.4428937e+02 3.98e-07 3.31e-01  -4.1 3.02e-03    -  1.00e+00 1.00e+00f  1
 261  1.4428100e+02 2.87e-07 2.14e-02  -4.1 2.39e-03    -  1.00e+00 1.00e+00f  1
 262  1.4437759e+02 3.14e-08 3.96e-02  -4.0 7.25e-04    -  1.00e+00 1.00e+00f  1
 263  1.4428187e+02 1.07e-07 5.76e-02  -4.1 1.37e-03    -  1.00e+00 1.00e+00f  1
 264  1.4438347e+02 2.11e-07 1.51e-01  -4.0 1.69e-03    -  1.00e+00 1.00e+00f  1
 265  1.4427948e+02 1.29e-07 4.48e-02  -4.1 1.35e-03    -  1.00e+00 1.00e+00f  1
 266  1.4438173e+02 5.78e-08 7.43e-02  -4.0 9.68e-04    -  1.00e+00 1.00e+00f  1
 267  1.4427910e+02 6.73e-08 6.14e-02  -4.1 1.13e-03    -  1.00e+00 1.00e+00f  1
 268  1.4438362e+02 2.31e-07 1.17e-01  -4.0 1.56e-03    -  1.00e+00 1.00e+00f  1
 269  1.4427857e+02 1.74e-07 6.03e-02  -4.1 1.36e-03    -  1.00e+00 1.00e+00f  1
iter    objective    inf_pr   inf_du lg(mu)  ||d||  lg(rg) alpha_du alpha_pr  ls
 270  1.4438271e+02 1.88e-07 1.36e-01  -4.0 2.09e-03    -  1.00e+00 1.00e+00f  1
 271  1.4427857e+02 8.88e-08 2.47e-02  -4.1 1.55e-03    -  1.00e+00 1.00e+00f  1
 272  1.4438529e+02 2.25e-07 1.68e-01  -4.0 1.39e-03    -  1.00e+00 1.00e+00f  1
 273  1.4427831e+02 2.27e-07 1.29e-02  -4.1 1.23e-03    -  1.00e+00 1.00e+00f  1
 274  1.4438071e+02 3.67e-08 5.26e-02  -4.0 9.24e-04    -  1.00e+00 1.00e+00f  1
 275  1.4427873e+02 7.26e-08 4.79e-02  -4.1 9.00e-04    -  1.00e+00 1.00e+00f  1
 276  1.4438232e+02 1.73e-07 1.35e-01  -4.0 1.24e-03    -  1.00e+00 1.00e+00f  1
 277  1.4427879e+02 8.78e-08 8.70e-02  -4.1 1.47e-03    -  1.00e+00 1.00e+00f  1
 278  1.4427871e+02 9.96e-08 1.10e-01  -4.1 9.80e-04    -  1.00e+00 1.00e+00h  1
 279  1.4438077e+02 6.58e-08 3.63e-02  -4.0 1.12e-03    -  1.00e+00 1.00e+00f  1
iter    objective    inf_pr   inf_du lg(mu)  ||d||  lg(rg) alpha_du alpha_pr  ls
 280  1.4427874e+02 9.60e-08 9.63e-02  -4.1 1.05e-03    -  1.00e+00 1.00e+00f  1
 281  1.4427777e+02 1.85e-08 7.34e-02  -4.1 6.61e-04    -  1.00e+00 1.00e+00h  1
 282  1.4438009e+02 6.73e-08 3.67e-02  -4.0 1.09e-03    -  1.00e+00 1.00e+00f  1
 283  1.4427860e+02 1.86e-07 8.76e-02  -4.1 9.28e-04    -  1.00e+00 1.00e+00f  1
 284  1.4427758e+02 1.17e-07 4.50e-02  -4.1 9.33e-04    -  1.00e+00 1.00e+00h  1
 285  1.4438003e+02 4.92e-08 4.72e-02  -4.0 9.88e-04    -  1.00e+00 1.00e+00f  1
 286  1.4427859e+02 5.32e-08 1.04e-01  -4.1 9.55e-04    -  1.00e+00 1.00e+00f  1
 287  1.4427708e+02 5.05e-08 5.15e-02  -4.1 7.59e-04    -  1.00e+00 1.00e+00h  1
 288  1.4438005e+02 4.66e-08 2.04e-02  -4.0 9.63e-04    -  1.00e+00 1.00e+00f  1
 289  1.4427743e+02 1.60e-07 1.36e-01  -4.1 1.31e-03    -  1.00e+00 1.00e+00f  1
iter    objective    inf_pr   inf_du lg(mu)  ||d||  lg(rg) alpha_du alpha_pr  ls
 290  1.4427721e+02 8.33e-08 8.29e-02  -4.1 9.73e-04    -  1.00e+00 1.00e+00h  1
 291  1.4427791e+02 3.47e-08 3.67e-02  -4.1 5.91e-04    -  1.00e+00 1.00e+00h  1
 292  1.4437977e+02 5.12e-08 2.13e-02  -4.0 9.17e-04    -  1.00e+00 1.00e+00f  1
 293  1.4427946e+02 2.35e-07 9.53e-02  -4.1 1.99e-03    -  1.00e+00 1.00e+00f  1
 294  1.4427703e+02 8.62e-08 3.90e-02  -4.1 1.06e-03    -  1.00e+00 1.00e+00h  1
 295  1.4437987e+02 6.21e-08 5.68e-02  -4.0 9.26e-04    -  1.00e+00 1.00e+00f  1
 296  1.4427797e+02 1.07e-07 9.93e-02  -4.1 1.40e-03    -  1.00e+00 1.00e+00f  1
 297  1.4427641e+02 6.98e-08 8.73e-02  -4.1 1.12e-03    -  1.00e+00 1.00e+00h  1
 298  1.4438261e+02 1.42e-07 1.29e-01  -4.0 1.33e-03    -  1.00e+00 1.00e+00f  1
 299  1.4427707e+02 1.24e-07 3.52e-02  -4.1 1.26e-03    -  1.00e+00 1.00e+00f  1
iter    objective    inf_pr   inf_du lg(mu)  ||d||  lg(rg) alpha_du alpha_pr  ls
 300  1.4427778e+02 1.57e-07 9.13e-02  -4.1 1.90e-03    -  1.00e+00 1.00e+00h  1
 301  1.4427663e+02 9.05e-08 1.52e-02  -4.1 1.23e-03    -  1.00e+00 1.00e+00h  1
 302  1.4427640e+02 7.27e-10 2.94e-03  -4.1 1.16e-04    -  1.00e+00 1.00e+00h  1
 303  1.4437898e+02 4.21e-08 6.78e-02  -4.0 9.11e-04    -  1.00e+00 1.00e+00f  1
 304  1.4427733e+02 8.72e-08 7.05e-02  -4.1 1.74e-03    -  1.00e+00 1.00e+00f  1
 305  1.4428543e+02 8.51e-11 8.32e-02  -4.1 4.62e-03    -  1.00e+00 1.00e+00H  1
 306  1.4427818e+02 6.59e-11 4.56e-02  -4.1 2.87e-03    -  1.00e+00 1.00e+00F  1
 307  1.4427664e+02 5.22e-08 1.12e+00  -4.1 2.04e-03    -  1.00e+00 5.00e-01f  2
 308  1.4427661e+02 9.45e-08 4.73e-02  -4.1 1.02e-03    -  1.00e+00 1.00e+00h  1
 309  1.4427640e+02 2.53e-08 5.69e-02  -4.1 9.89e-04    -  1.00e+00 1.00e+00h  1
iter    objective    inf_pr   inf_du lg(mu)  ||d||  lg(rg) alpha_du alpha_pr  ls
 310  1.4427604e+02 3.57e-08 3.02e-02  -4.1 4.27e-04    -  1.00e+00 1.00e+00h  1
 311  1.4436445e+02 3.52e-08 5.20e-02  -4.0 4.91e-04    -  1.00e+00 1.00e+00f  1
 312  1.4427924e+02 1.83e-08 4.04e-02  -4.1 5.47e-04    -  1.00e+00 1.00e+00f  1
 313  1.4427675e+02 1.23e-08 7.80e-03  -4.1 5.11e-04    -  1.00e+00 1.00e+00h  1
 314  1.4427737e+02 1.36e-08 1.01e-02  -4.1 4.38e-04    -  1.00e+00 1.00e+00h  1
 315  1.4427699e+02 5.01e-09 2.03e-03  -4.1 2.74e-04    -  1.00e+00 1.00e+00h  1
 316  1.4427685e+02 1.26e-10 1.21e-03  -4.1 7.35e-05    -  1.00e+00 1.00e+00h  1
 317  1.4437837e+02 6.12e-08 7.01e-02  -4.0 9.06e-04    -  1.00e+00 1.00e+00f  1
 318  1.4427639e+02 5.22e-08 3.74e-02  -4.1 8.64e-04    -  1.00e+00 1.00e+00f  1
 319  1.4427656e+02 2.57e-11 3.60e-02  -4.1 1.91e-03    -  1.00e+00 1.00e+00H  1
iter    objective    inf_pr   inf_du lg(mu)  ||d||  lg(rg) alpha_du alpha_pr  ls
 320  1.4427608e+02 1.33e-07 1.52e-02  -4.1 1.57e-03    -  1.00e+00 1.00e+00f  1
 321  1.4427605e+02 5.12e-10 2.52e-03  -4.1 1.33e-04    -  1.00e+00 1.00e+00h  1
 322  1.4437943e+02 4.96e-08 5.85e-02  -4.0 1.24e-03    -  1.00e+00 1.00e+00f  1
 323  1.4427859e+02 1.83e-07 1.47e-01  -4.1 3.94e-03    -  1.00e+00 1.00e+00f  1
 324  1.4430056e+02 3.23e-10 1.18e-01  -4.1 9.46e-03    -  1.00e+00 1.00e+00H  1
 325  1.4429354e+02 1.03e-09 8.93e-02  -4.1 5.35e-03    -  1.00e+00 1.00e+00F  1
 326  1.4428089e+02 1.27e-06 1.85e-01  -4.1 4.02e-03    -  1.00e+00 1.00e+00f  1
 327  1.4427842e+02 1.38e-07 1.79e-01  -4.1 2.28e-03    -  1.00e+00 1.00e+00h  1
 328  1.4427686e+02 7.43e-08 6.02e-02  -4.1 8.40e-04    -  1.00e+00 1.00e+00h  1
 329  1.4427639e+02 7.03e-09 7.04e-03  -4.1 5.27e-04    -  1.00e+00 1.00e+00h  1
iter    objective    inf_pr   inf_du lg(mu)  ||d||  lg(rg) alpha_du alpha_pr  ls
 330  1.4427640e+02 2.20e-09 3.16e-03  -4.1 3.49e-04    -  1.00e+00 1.00e+00h  1
 331  1.4427591e+02 2.75e-12 1.12e-02  -4.1 9.11e-04    -  1.00e+00 1.00e+00H  1
 332  1.4437616e+02 3.75e-08 7.49e-02  -4.0 1.12e-03    -  1.00e+00 1.00e+00f  1
 333  1.4427950e+02 8.32e-08 9.84e-02  -4.1 9.91e-04    -  1.00e+00 1.00e+00f  1
 334  1.4427589e+02 4.05e-08 3.80e-02  -4.1 6.45e-04    -  1.00e+00 1.00e+00h  1
 335  1.4437658e+02 2.38e-08 3.05e-02  -4.0 1.08e-03    -  1.00e+00 1.00e+00f  1
 336  1.4427577e+02 2.96e-08 6.17e-02  -4.1 1.21e-03    -  1.00e+00 1.00e+00f  1
 337  1.4437938e+02 1.26e-07 8.46e-02  -4.0 1.70e-03    -  1.00e+00 1.00e+00f  1
 338  1.4427645e+02 1.12e-07 3.56e-02  -4.1 1.40e-03    -  1.00e+00 1.00e+00f  1
 339  1.4427547e+02 1.72e-08 5.92e-02  -4.1 6.67e-04    -  1.00e+00 1.00e+00h  1
iter    objective    inf_pr   inf_du lg(mu)  ||d||  lg(rg) alpha_du alpha_pr  ls
 340  1.4437802e+02 3.17e-08 2.42e-02  -4.0 1.22e-03    -  1.00e+00 1.00e+00f  1
 341  1.4427606e+02 6.29e-08 1.04e-01  -4.1 1.98e-03    -  1.00e+00 1.00e+00f  1
 342  1.4427494e+02 4.02e-08 6.15e-02  -4.1 8.24e-04    -  1.00e+00 1.00e+00h  1
 343  1.4437789e+02 5.04e-08 4.01e-02  -4.0 1.20e-03    -  1.00e+00 1.00e+00f  1
 344  1.4427738e+02 9.26e-08 1.53e-01  -4.1 2.07e-03    -  1.00e+00 1.00e+00f  1
 345  1.4427498e+02 2.63e-08 3.27e-02  -4.1 9.87e-04    -  1.00e+00 1.00e+00h  1
 346  1.4427535e+02 7.38e-09 1.19e-02  -4.1 2.89e-04    -  1.00e+00 1.00e+00h  1
 347  1.4437721e+02 2.02e-08 2.73e-02  -4.0 1.21e-03    -  1.00e+00 1.00e+00f  1
 348  1.4428054e+02 2.74e-07 1.81e-01  -4.1 3.19e-03    -  1.00e+00 1.00e+00f  1
 349  1.4427529e+02 1.62e-07 1.42e-02  -4.1 1.77e-03    -  1.00e+00 1.00e+00h  1
iter    objective    inf_pr   inf_du lg(mu)  ||d||  lg(rg) alpha_du alpha_pr  ls
 350  1.4427538e+02 3.76e-10 2.66e-03  -4.1 8.20e-05    -  1.00e+00 1.00e+00h  1
 351  1.4437790e+02 2.12e-08 1.74e-02  -4.0 1.23e-03    -  1.00e+00 1.00e+00f  1
 352  1.4427703e+02 1.84e-07 1.16e-01  -4.1 2.40e-03    -  1.00e+00 1.00e+00f  1
 353  1.4427477e+02 4.59e-08 5.37e-02  -4.1 8.46e-04    -  1.00e+00 1.00e+00h  1
 354  1.4437801e+02 3.87e-08 2.71e-02  -4.0 1.45e-03    -  1.00e+00 1.00e+00f  1
 355  1.4427902e+02 3.36e-07 1.49e-01  -4.1 1.95e-03    -  1.00e+00 1.00e+00f  1
 356  1.4427470e+02 1.82e-07 2.33e-02  -4.1 1.72e-03    -  1.00e+00 1.00e+00h  1
 357  1.4437813e+02 2.78e-08 2.02e-02  -4.0 1.20e-03    -  1.00e+00 1.00e+00f  1
 358  1.4432921e+02 1.34e-07 9.99e+02  -4.1 3.63e-03    -  1.00e+00 5.00e-01f  2
 359  1.4427490e+02 1.70e-07 2.48e-02  -4.1 1.96e-03    -  1.00e+00 1.00e+00f  1
iter    objective    inf_pr   inf_du lg(mu)  ||d||  lg(rg) alpha_du alpha_pr  ls
 360  1.4427527e+02 6.02e-09 9.16e-03  -4.1 1.97e-04    -  1.00e+00 1.00e+00h  1
 361  1.4437809e+02 2.81e-08 1.11e-02  -4.0 1.19e-03    -  1.00e+00 1.00e+00f  1
 362  1.4427648e+02 9.44e-08 1.33e-01  -4.1 3.18e-03    -  1.00e+00 1.00e+00f  1
 363  1.4427588e+02 3.33e-07 1.55e-01  -4.1 2.40e-03    -  1.00e+00 1.00e+00h  1
 364  1.4429133e+02 1.96e-10 1.15e-01  -4.1 3.00e-03    -  1.00e+00 1.00e+00H  1
 365  1.4427540e+02 4.63e-07 3.77e-02  -4.1 2.60e-03    -  1.00e+00 1.00e+00f  1
 366  1.4427544e+02 5.43e-10 3.60e-03  -4.1 8.16e-05    -  1.00e+00 1.00e+00h  1
 367  1.4427536e+02 3.17e-09 2.07e-03  -4.1 2.67e-04    -  1.00e+00 1.00e+00h  1
 368  1.4437747e+02 4.52e-08 7.25e-02  -4.0 2.20e-03    -  1.00e+00 1.00e+00f  1
 369  1.4427585e+02 8.25e-08 3.76e-02  -4.1 3.38e-03    -  1.00e+00 1.00e+00f  1
iter    objective    inf_pr   inf_du lg(mu)  ||d||  lg(rg) alpha_du alpha_pr  ls
 370  1.4436868e+02 3.97e-09 3.26e-01  -4.1 8.70e-03    -  1.00e+00 1.00e+00H  1
 371  1.4427497e+02 4.15e-06 4.54e-02  -4.1 8.38e-03    -  1.00e+00 1.00e+00f  1
 372  1.4427658e+02 1.07e-07 1.24e-01  -4.1 1.13e-03    -  1.00e+00 1.00e+00h  1
 373  1.4427496e+02 6.07e-08 1.02e-02  -4.1 9.03e-04    -  1.00e+00 1.00e+00h  1
 374  1.4427499e+02 1.87e-10 1.73e-03  -4.1 7.03e-05    -  1.00e+00 1.00e+00h  1
 375  1.4437680e+02 3.28e-08 6.52e-02  -4.0 2.85e-03    -  1.00e+00 1.00e+00f  1
 376  1.4433363e+02 4.21e-07 9.98e+02  -4.1 1.62e-02    -  1.00e+00 5.00e-01f  2
 377  1.4427567e+02 2.20e-07 1.06e-01  -4.1 4.49e-03    -  1.00e+00 1.00e+00f  1
 378  1.4428454e+02 3.83e-10 6.72e-02  -4.1 6.97e-03    -  1.00e+00 1.00e+00H  1
 379  1.4427822e+02 1.22e-10 5.30e-02  -4.1 3.89e-03    -  1.00e+00 1.00e+00F  1
iter    objective    inf_pr   inf_du lg(mu)  ||d||  lg(rg) alpha_du alpha_pr  ls
 380  1.4427739e+02 3.74e-07 6.64e-01  -4.1 4.20e-03    -  1.00e+00 5.00e-01f  2
 381  1.4427892e+02 4.57e-11 5.16e-02  -4.1 2.41e-03    -  1.00e+00 1.00e+00H  1
 382  1.4427548e+02 1.38e-07 4.56e-02  -4.1 1.29e-03    -  1.00e+00 1.00e+00f  1
 383  1.4427462e+02 2.67e-08 7.32e-02  -4.1 7.41e-04    -  1.00e+00 1.00e+00h  1
 384  1.4436369e+02 4.39e-08 3.84e-02  -4.0 7.45e-04    -  1.00e+00 1.00e+00f  1
 385  1.4427924e+02 1.33e-08 5.09e-02  -4.1 4.90e-04    -  1.00e+00 1.00e+00f  1
 386  1.4427633e+02 5.52e-09 5.29e-03  -4.1 2.94e-04    -  1.00e+00 1.00e+00h  1
 387  1.4427667e+02 6.15e-10 2.56e-03  -4.1 9.31e-05    -  1.00e+00 1.00e+00h  1
 388  1.4427624e+02 1.59e-10 1.13e-03  -4.1 4.45e-05    -  1.00e+00 1.00e+00h  1
 389  1.4427601e+02 1.01e-10 7.52e-04  -4.1 5.27e-05    -  1.00e+00 1.00e+00h  1

Number of Iterations....: 389

                                   (scaled)                 (unscaled)
Objective...............:   5.4803584794950822e+01    1.4427601332348311e+02
Dual infeasibility......:   7.5229699088610880e-04    1.9804983759073437e-03
Constraint violation....:   1.0147569460477382e-10    1.0147569460477382e-10
Variable bound violation:   0.0000000000000000e+00    0.0000000000000000e+00
Complementarity.........:   8.0193320058604276e-05    2.1111707485046679e-04
Overall NLP error.......:   7.5229699088610880e-04    1.9804983759073437e-03


Number of objective function evaluations             = 629
Number of objective gradient evaluations             = 390
Number of equality constraint evaluations            = 629
Number of inequality constraint evaluations          = 629
Number of equality constraint Jacobian evaluations   = 390
Number of inequality constraint Jacobian evaluations = 390
Number of Lagrangian Hessian evaluations             = 0
Total seconds in IPOPT                               = 34.236

EXIT: Optimal Solution Found.
